* ENCODING=ISO-8859-1
NAME          CPLEX
ROWS
 N  obj1    
 G  c1      
 G  c2      
 G  c3      
 G  c4      
 G  c5      
 G  c6      
 G  c7      
 G  c8      
 G  c9      
 G  c10     
 G  c11     
 G  c12     
 G  c13     
 G  c14     
 G  c15     
 G  c16     
 G  c17     
 G  c18     
 G  c19     
 G  c20     
 G  c21     
 G  c22     
 G  c23     
 G  c24     
 G  c25     
 G  c26     
 G  c27     
 G  c28     
 G  c29     
 G  c30     
 G  c31     
 G  c32     
 G  c33     
 G  c34     
 G  c35     
 G  c36     
 G  c37     
 G  c38     
 G  c39     
 G  c40     
 G  c41     
 G  c42     
 G  c43     
 G  c44     
 G  c45     
 G  c46     
 G  c47     
 G  c48     
 G  c49     
 G  c50     
 G  c51     
 G  c52     
 G  c53     
 G  c54     
 G  c55     
 G  c56     
 G  c57     
 G  c58     
 G  c59     
 G  c60     
COLUMNS
    MARK0000  'MARKER'                 'INTORG'
    x1        obj1                            1
    x1        c1                            421
    x1        c14                           988
    x1        c15                           936
    x1        c16                           859
    x1        c18                           546
    x1        c22                           555
    x1        c26                           545
    x1        c36                           755
    x1        c46                           706
    x1        c47                           106
    x1        c49                           314
    x1        c50                           257
    x1        c59                           944
    x2        obj1                            1
    x2        c25                           681
    x2        c30                           445
    x2        c36                           582
    x2        c42                           325
    x2        c44                           405
    x2        c47                           621
    x2        c52                           190
    x2        c57                           341
    x3        obj1                            1
    x3        c2                            613
    x3        c18                           511
    x3        c27                           532
    x4        obj1                            1
    x4        c22                           244
    x4        c23                           624
    x5        obj1                            1
    x5        c28                           246
    x5        c36                           927
    x5        c49                           846
    x6        obj1                            1
    x6        c3                            938
    x6        c11                           703
    x6        c20                           325
    x6        c29                           691
    x6        c32                           742
    x6        c34                           104
    x6        c52                           104
    x6        c58                           579
    x6        c59                           280
    x7        obj1                            1
    x7        c7                            703
    x7        c16                           876
    x7        c25                           677
    x7        c41                           497
    x8        obj1                            1
    x8        c2                            405
    x8        c6                            204
    x8        c12                           847
    x8        c26                           991
    x8        c30                           166
    x8        c31                           660
    x8        c37                           288
    x8        c49                           142
    x9        obj1                            1
    x9        c22                           419
    x9        c24                           961
    x9        c34                           515
    x9        c35                           753
    x9        c38                           748
    x9        c41                           408
    x9        c49                           331
    x9        c54                           326
    x9        c59                           967
    x10       obj1                            1
    x10       c4                            575
    x10       c8                            970
    x10       c11                           192
    x10       c40                           283
    x10       c50                           456
    x11       obj1                            1
    x11       c23                           733
    x11       c39                           646
    x11       c41                           949
    x12       obj1                            1
    x12       c1                            400
    x12       c4                            275
    x12       c39                           994
    x12       c47                           550
    x12       c55                           522
    x12       c58                           212
    x13       obj1                            1
    x13       c3                            225
    x13       c4                            931
    x13       c5                            495
    x13       c14                           843
    x13       c17                           233
    x13       c21                           899
    x13       c41                           193
    x14       obj1                            1
    x14       c44                           819
    x15       obj1                            1
    x15       c25                           959
    x15       c55                           483
    x16       obj1                            1
    x16       c4                            862
    x16       c10                           830
    x16       c27                           238
    x16       c33                           200
    x16       c42                           366
    x17       obj1                            1
    x17       c8                            989
    x17       c9                            861
    x17       c23                           330
    x17       c24                           827
    x17       c25                           449
    x17       c31                           431
    x17       c57                           464
    x18       obj1                            1
    x18       c5                            506
    x18       c9                            165
    x18       c25                           682
    x18       c29                           389
    x18       c35                           118
    x18       c36                           943
    x18       c59                           245
    x19       obj1                            1
    x19       c17                           258
    x19       c34                           329
    x19       c36                           815
    x19       c41                           352
    x19       c47                           561
    x19       c49                           381
    x20       obj1                            1
    x20       c5                            389
    x20       c14                           288
    x20       c20                           796
    x20       c21                           512
    x20       c34                           472
    x20       c59                           651
    x20       c60                           846
    x21       obj1                            1
    x21       c5                            291
    x21       c15                           703
    x21       c21                           657
    x21       c27                           298
    x21       c37                           915
    x21       c47                           406
    x21       c56                           117
    x21       c57                           915
    x22       obj1                            1
    x22       c10                           630
    x22       c41                           671
    x22       c46                           470
    x22       c48                           859
    x22       c51                           553
    x22       c53                           554
    x23       obj1                            1
    x23       c8                            961
    x23       c12                           114
    x23       c13                           252
    x23       c15                           477
    x23       c26                           771
    x23       c31                           663
    x23       c37                           748
    x23       c44                           243
    x23       c59                           345
    x24       obj1                            1
    x24       c4                            279
    x24       c6                            747
    x24       c8                            170
    x24       c37                           459
    x24       c46                           494
    x24       c52                           790
    x24       c60                           153
    x25       obj1                            1
    x25       c4                            551
    x25       c11                           377
    x25       c16                           580
    x25       c27                           514
    x25       c28                           324
    x25       c29                           335
    x25       c51                           509
    x26       obj1                            1
    x26       c6                            744
    x26       c21                           555
    x26       c28                           764
    x26       c33                           264
    x26       c48                           783
    x26       c58                           876
    x27       obj1                            1
    x27       c12                           973
    x27       c15                           352
    x27       c50                           768
    x28       obj1                            1
    x28       c2                            137
    x28       c12                           135
    x28       c19                           134
    x28       c37                           671
    x28       c56                           465
    x29       obj1                            1
    x29       c6                            303
    x29       c7                            324
    x29       c11                           253
    x29       c21                           464
    x29       c37                           721
    x29       c38                           468
    x29       c41                           396
    x30       obj1                            1
    x30       c8                            670
    x30       c11                           243
    x30       c15                           960
    x30       c16                           916
    x30       c31                           161
    x30       c40                           153
    x30       c48                           851
    x31       obj1                            1
    x31       c3                            552
    x31       c5                            461
    x31       c23                           826
    x31       c42                           660
    x31       c57                           719
    x32       obj1                            1
    x32       c8                            481
    x32       c13                           301
    x32       c21                           972
    x32       c30                           110
    x32       c42                           851
    x32       c51                           146
    x32       c55                           194
    x33       obj1                            1
    x33       c27                           587
    x33       c29                           245
    x33       c31                           556
    x33       c57                           579
    x34       obj1                            1
    x34       c8                            547
    x34       c12                           959
    x34       c24                           511
    x34       c25                           984
    x34       c36                           418
    x34       c48                           539
    x34       c53                           707
    x35       obj1                            1
    x35       c10                           724
    x35       c23                           600
    x35       c37                           308
    x35       c58                           876
    x36       obj1                            1
    x36       c4                            715
    x36       c11                           441
    x36       c30                           568
    x36       c31                           220
    x37       obj1                            1
    x37       c15                           634
    x37       c23                           208
    x37       c26                           228
    x37       c34                           366
    x37       c57                           672
    x38       obj1                            1
    x38       c10                           618
    x38       c20                           455
    x38       c25                           219
    x38       c37                           160
    x38       c59                           348
    x39       obj1                            1
    x39       c1                            523
    x39       c11                           654
    x39       c36                           495
    x39       c46                           984
    x40       obj1                            1
    x40       c10                           176
    x40       c49                           475
    x40       c51                           833
    x40       c52                           282
    x40       c53                           960
    x40       c54                           409
    x41       obj1                            1
    x41       c10                           281
    x41       c16                           706
    x41       c25                           562
    x41       c39                           282
    x41       c40                           247
    x41       c42                           520
    x41       c46                           393
    x42       obj1                            1
    x42       c1                            428
    x42       c4                            251
    x42       c5                            228
    x42       c8                            457
    x42       c26                           343
    x42       c35                           280
    x42       c38                           540
    x42       c42                           795
    x42       c47                           524
    x42       c53                           416
    x43       obj1                            1
    x43       c24                           720
    x43       c25                           525
    x43       c27                           108
    x43       c34                           192
    x43       c39                           755
    x43       c41                           581
    x44       obj1                            1
    x44       c6                            383
    x44       c18                           841
    x44       c20                           769
    x44       c23                           997
    x44       c24                           777
    x44       c47                           952
    x44       c48                           476
    x44       c52                           574
    x44       c57                           253
    x45       obj1                            1
    x45       c14                           969
    x45       c21                           727
    x45       c23                           277
    x45       c26                           820
    x45       c32                           835
    x45       c43                           876
    x45       c46                           915
    x45       c47                           267
    x45       c54                           674
    x46       obj1                            1
    x46       c6                            395
    x46       c7                            624
    x46       c10                           255
    x46       c24                           984
    x46       c28                           313
    x46       c40                           975
    x46       c52                           456
    x47       obj1                            1
    x47       c8                            763
    x47       c40                           785
    x47       c56                           156
    x47       c60                           961
    x48       obj1                            1
    x48       c9                            294
    x48       c19                           843
    x48       c20                           139
    x48       c40                           750
    x48       c41                           999
    x48       c43                           470
    x48       c57                           107
    x49       obj1                            1
    x49       c17                           294
    x49       c20                           263
    x49       c39                           230
    x49       c45                           492
    x49       c46                           550
    x49       c58                           838
    x49       c60                           920
    x50       obj1                            1
    x50       c13                           694
    x50       c14                           167
    x50       c22                           675
    x50       c30                           362
    x50       c32                           516
    x50       c42                           849
    x50       c43                           628
    x50       c45                           794
    x51       obj1                            1
    x51       c5                            529
    x51       c18                           697
    x51       c31                           212
    x51       c52                           633
    x51       c53                           639
    x51       c59                           895
    x52       obj1                            1
    x52       c4                            749
    x52       c10                           297
    x52       c24                           775
    x52       c26                           963
    x52       c27                           532
    x52       c32                           244
    x52       c33                           562
    x52       c49                           540
    x53       obj1                            1
    x53       c7                            262
    x53       c14                           447
    x53       c19                           809
    x53       c27                           536
    x53       c28                           664
    x53       c47                           881
    x53       c50                           915
    x53       c60                           546
    x54       obj1                            1
    x54       c7                            776
    x54       c16                           396
    x54       c38                           987
    x54       c42                           270
    x55       obj1                            1
    x55       c1                            345
    x55       c2                            184
    x55       c9                            973
    x55       c11                           402
    x55       c14                           687
    x55       c16                           482
    x55       c27                           348
    x55       c43                           177
    x55       c49                           620
    x55       c58                           611
    x56       obj1                            1
    x56       c14                           110
    x56       c21                           399
    x56       c23                           942
    x56       c31                           471
    x56       c37                           646
    x56       c39                           801
    x56       c46                           938
    x57       obj1                            1
    x57       c1                            615
    x57       c5                            538
    x57       c10                           935
    x57       c11                           959
    x57       c12                           713
    x57       c16                           912
    x57       c34                           387
    x57       c45                           342
    x58       obj1                            1
    x58       c40                           534
    x58       c42                           214
    x58       c54                           516
    x58       c58                           719
    x59       obj1                            1
    x59       c44                           903
    x60       obj1                            1
    x60       c1                            676
    x60       c14                           133
    x60       c24                           864
    x60       c34                           753
    x60       c44                           464
    x60       c53                           338
    MARK0001  'MARKER'                 'INTEND'
RHS
    rhs       c1                           1704
    rhs       c2                            670
    rhs       c3                            858
    rhs       c4                           2594
    rhs       c5                           1719
    rhs       c6                           1388
    rhs       c7                           1345
    rhs       c8                           3004
    rhs       c9                           1147
    rhs       c10                          2373
    rhs       c11                          2112
    rhs       c12                          1871
    rhs       c13                           624
    rhs       c14                          2316
    rhs       c15                          2031
    rhs       c16                          2864
    rhs       c17                           393
    rhs       c18                          1298
    rhs       c19                           893
    rhs       c20                          1374
    rhs       c21                          2593
    rhs       c22                           947
    rhs       c23                          2769
    rhs       c24                          3210
    rhs       c25                          2869
    rhs       c26                          2331
    rhs       c27                          1847
    rhs       c28                          1156
    rhs       c29                           830
    rhs       c30                           826
    rhs       c31                          1687
    rhs       c32                          1169
    rhs       c33                           513
    rhs       c34                          1559
    rhs       c35                           576
    rhs       c36                          2468
    rhs       c37                          2458
    rhs       c38                          1372
    rhs       c39                          1854
    rhs       c40                          1864
    rhs       c41                          2523
    rhs       c42                          2425
    rhs       c43                          1076
    rhs       c44                          1417
    rhs       c45                           814
    rhs       c46                          2725
    rhs       c47                          2434
    rhs       c48                          1754
    rhs       c49                          1825
    rhs       c50                          1198
    rhs       c51                          1021
    rhs       c52                          1515
    rhs       c53                          1807
    rhs       c54                           963
    rhs       c55                           600
    rhs       c56                           369
    rhs       c57                          2025
    rhs       c58                          2356
    rhs       c59                          2338
    rhs       c60                          1713
BOUNDS
 LI bnd       x1        0
 LI bnd       x2        0
 LI bnd       x3        0
 LI bnd       x4        0
 LI bnd       x5        0
 LI bnd       x6        0
 LI bnd       x7        0
 LI bnd       x8        0
 LI bnd       x9        0
 LI bnd       x10       0
 LI bnd       x11       0
 LI bnd       x12       0
 LI bnd       x13       0
 LI bnd       x14       0
 LI bnd       x15       0
 LI bnd       x16       0
 LI bnd       x17       0
 LI bnd       x18       0
 LI bnd       x19       0
 LI bnd       x20       0
 LI bnd       x21       0
 LI bnd       x22       0
 LI bnd       x23       0
 LI bnd       x24       0
 LI bnd       x25       0
 LI bnd       x26       0
 LI bnd       x27       0
 LI bnd       x28       0
 LI bnd       x29       0
 LI bnd       x30       0
 LI bnd       x31       0
 LI bnd       x32       0
 LI bnd       x33       0
 LI bnd       x34       0
 LI bnd       x35       0
 LI bnd       x36       0
 LI bnd       x37       0
 LI bnd       x38       0
 LI bnd       x39       0
 LI bnd       x40       0
 LI bnd       x41       0
 LI bnd       x42       0
 LI bnd       x43       0
 LI bnd       x44       0
 LI bnd       x45       0
 LI bnd       x46       0
 LI bnd       x47       0
 LI bnd       x48       0
 LI bnd       x49       0
 LI bnd       x50       0
 LI bnd       x51       0
 LI bnd       x52       0
 LI bnd       x53       0
 LI bnd       x54       0
 LI bnd       x55       0
 LI bnd       x56       0
 LI bnd       x57       0
 LI bnd       x58       0
 LI bnd       x59       0
 LI bnd       x60       0
ENDATA
